NAME : 1
COMMENT : CVRP Instance
TYPE : CVRP
DIMENSION : 601
EDGE_WEIGHT_TYPE : EUC_2D
CAPACITY : 80
NODE_COORD_SECTION
1	715.0	396.0
2	614.0	520.0
3	529.0	880.0
4	549.0	373.0
5	548.0	236.0
6	354.0	563.0
7	719.0	341.0
8	618.0	155.0
9	410.0	407.0
10	390.0	568.0
11	322.0	387.0
12	571.0	303.0
13	576.0	268.0
14	609.0	97.0
15	379.0	611.0
16	395.0	414.0
17	132.0	287.0
18	548.0	233.0
19	621.0	246.0
20	292.0	678.0
21	535.0	88.0
22	578.0	141.0
23	608.0	199.0
24	539.0	214.0
25	897.0	636.0
26	473.0	37.0
27	493.0	295.0
28	606.0	206.0
29	327.0	798.0
30	392.0	62.0
31	565.0	582.0
32	291.0	354.0
33	532.0	300.0
34	572.0	102.0
35	409.0	515.0
36	758.0	495.0
37	433.0	51.0
38	758.0	299.0
39	533.0	250.0
40	500.0	336.0
41	415.0	174.0
42	480.0	426.0
43	445.0	725.0
44	221.0	659.0
45	750.0	495.0
46	237.0	639.0
47	480.0	585.0
48	169.0	783.0
49	244.0	119.0
50	439.0	186.0
51	609.0	148.0
52	250.0	380.0
53	371.0	586.0
54	491.0	451.0
55	529.0	415.0
56	481.0	391.0
57	624.0	154.0
58	850.0	519.0
59	552.0	235.0
60	184.0	377.0
61	890.0	571.0
62	848.0	349.0
63	419.0	90.0
64	493.0	369.0
65	326.0	557.0
66	423.0	60.0
67	523.0	313.0
68	512.0	402.0
69	403.0	226.0
70	312.0	45.0
71	712.0	404.0
72	398.0	234.0
73	309.0	357.0
74	543.0	229.0
75	524.0	422.0
76	216.0	731.0
77	566.0	102.0
78	441.0	65.0
79	478.0	733.0
80	395.0	56.0
81	514.0	438.0
82	835.0	549.0
83	607.0	175.0
84	253.0	325.0
85	621.0	246.0
86	599.0	231.0
87	555.0	239.0
88	572.0	105.0
89	552.0	245.0
90	202.0	358.0
91	141.0	779.0
92	807.0	485.0
93	721.0	303.0
94	325.0	710.0
95	474.0	318.0
96	446.0	370.0
97	460.0	358.0
98	701.0	310.0
99	606.0	101.0
100	188.0	343.0
101	612.0	140.0
102	391.0	56.0
103	695.0	304.0
104	30.0	164.0
105	226.0	801.0
106	483.0	303.0
107	72.0	132.0
108	604.0	151.0
109	498.0	294.0
110	276.0	336.0
111	0.0	149.0
112	110.0	270.0
113	614.0	135.0
114	471.0	417.0
115	811.0	495.0
116	176.0	262.0
117	502.0	288.0
118	366.0	492.0
119	174.0	775.0
120	20.0	232.0
121	566.0	104.0
122	610.0	131.0
123	579.0	107.0
124	602.0	101.0
125	546.0	278.0
126	602.0	105.0
127	793.0	178.0
128	381.0	249.0
129	453.0	48.0
130	619.0	151.0
131	352.0	607.0
132	772.0	501.0
133	823.0	465.0
134	388.0	191.0
135	546.0	421.0
136	788.0	516.0
137	542.0	263.0
138	577.0	96.0
139	708.0	359.0
140	527.0	270.0
141	709.0	314.0
142	561.0	248.0
143	292.0	22.0
144	578.0	260.0
145	125.0	164.0
146	411.0	191.0
147	391.0	684.0
148	597.0	304.0
149	391.0	54.0
150	337.0	674.0
151	614.0	204.0
152	474.0	385.0
153	632.0	584.0
154	620.0	227.0
155	504.0	330.0
156	618.0	171.0
157	562.0	245.0
158	386.0	181.0
159	142.0	335.0
160	512.0	311.0
161	351.0	553.0
162	191.0	254.0
163	613.0	198.0
164	428.0	431.0
165	324.0	344.0
166	447.0	55.0
167	445.0	208.0
168	289.0	26.0
169	536.0	259.0
170	340.0	365.0
171	713.0	293.0
172	471.0	762.0
173	708.0	306.0
174	377.0	541.0
175	125.0	251.0
176	286.0	30.0
177	408.0	341.0
178	620.0	533.0
179	602.0	174.0
180	566.0	105.0
181	691.0	299.0
182	549.0	252.0
183	611.0	174.0
184	701.0	310.0
185	384.0	56.0
186	627.0	243.0
187	458.0	551.0
188	552.0	306.0
189	635.0	156.0
190	216.0	763.0
191	397.0	454.0
192	574.0	349.0
193	835.0	527.0
194	753.0	513.0
195	574.0	280.0
196	573.0	111.0
197	559.0	273.0
198	299.0	55.0
199	625.0	238.0
200	728.0	458.0
201	624.0	564.0
202	44.0	248.0
203	434.0	225.0
204	496.0	508.0
205	281.0	336.0
206	350.0	144.0
207	761.0	299.0
208	676.0	295.0
209	708.0	289.0
210	431.0	249.0
211	602.0	103.0
212	412.0	40.0
213	576.0	262.0
214	195.0	301.0
215	699.0	300.0
216	364.0	667.0
217	806.0	494.0
218	463.0	561.0
219	577.0	263.0
220	701.0	293.0
221	922.0	436.0
222	134.0	518.0
223	683.0	302.0
224	630.0	216.0
225	601.0	99.0
226	446.0	48.0
227	704.0	315.0
228	373.0	579.0
229	529.0	83.0
230	434.0	52.0
231	463.0	304.0
232	818.0	416.0
233	383.0	170.0
234	683.0	306.0
235	206.0	385.0
236	417.0	448.0
237	496.0	27.0
238	751.0	519.0
239	577.0	255.0
240	618.0	155.0
241	772.0	501.0
242	627.0	245.0
243	744.0	173.0
244	264.0	0.0
245	609.0	101.0
246	241.0	656.0
247	492.0	582.0
248	580.0	102.0
249	823.0	405.0
250	315.0	681.0
251	337.0	640.0
252	731.0	354.0
253	178.0	243.0
254	762.0	464.0
255	628.0	211.0
256	622.0	152.0
257	392.0	388.0
258	551.0	251.0
259	416.0	671.0
260	488.0	347.0
261	527.0	308.0
262	272.0	371.0
263	599.0	123.0
264	304.0	7.0
265	335.0	71.0
266	612.0	143.0
267	584.0	541.0
268	773.0	355.0
269	585.0	257.0
270	505.0	57.0
271	626.0	230.0
272	621.0	510.0
273	586.0	163.0
274	461.0	579.0
275	352.0	712.0
276	610.0	215.0
277	703.0	280.0
278	137.0	200.0
279	508.0	463.0
280	370.0	58.0
281	563.0	122.0
282	724.0	266.0
283	436.0	715.0
284	347.0	131.0
285	289.0	392.0
286	526.0	256.0
287	273.0	345.0
288	482.0	322.0
289	439.0	384.0
290	399.0	544.0
291	470.0	94.0
292	349.0	355.0
293	515.0	829.0
294	598.0	282.0
295	451.0	51.0
296	605.0	205.0
297	573.0	111.0
298	219.0	630.0
299	462.0	41.0
300	723.0	254.0
301	451.0	453.0
302	469.0	356.0
303	720.0	303.0
304	401.0	351.0
305	599.0	539.0
306	721.0	494.0
307	206.0	367.0
308	643.0	200.0
309	614.0	144.0
310	561.0	98.0
311	573.0	274.0
312	417.0	844.0
313	237.0	639.0
314	287.0	111.0
315	612.0	138.0
316	329.0	42.0
317	389.0	395.0
318	146.0	311.0
319	549.0	236.0
320	431.0	252.0
321	557.0	296.0
322	319.0	42.0
323	615.0	137.0
324	437.0	44.0
325	407.0	532.0
326	538.0	866.0
327	448.0	353.0
328	460.0	616.0
329	542.0	232.0
330	382.0	135.0
331	711.0	298.0
332	707.0	379.0
333	83.0	266.0
334	602.0	166.0
335	295.0	9.0
336	404.0	359.0
337	621.0	230.0
338	562.0	106.0
339	593.0	145.0
340	445.0	220.0
341	154.0	738.0
342	330.0	351.0
343	421.0	54.0
344	479.0	329.0
345	330.0	58.0
346	269.0	333.0
347	486.0	338.0
348	798.0	143.0
349	445.0	413.0
350	529.0	342.0
351	297.0	29.0
352	266.0	327.0
353	369.0	553.0
354	516.0	327.0
355	454.0	50.0
356	424.0	54.0
357	792.0	401.0
358	609.0	122.0
359	472.0	425.0
360	743.0	463.0
361	625.0	145.0
362	298.0	28.0
363	627.0	227.0
364	453.0	427.0
365	358.0	640.0
366	553.0	261.0
367	373.0	545.0
368	174.0	273.0
369	123.0	496.0
370	539.0	213.0
371	707.0	379.0
372	551.0	264.0
373	732.0	361.0
374	276.0	432.0
375	475.0	441.0
376	404.0	554.0
377	593.0	276.0
378	323.0	655.0
379	800.0	226.0
380	585.0	570.0
381	542.0	273.0
382	480.0	315.0
383	630.0	580.0
384	472.0	656.0
385	600.0	104.0
386	184.0	361.0
387	422.0	244.0
388	715.0	316.0
389	589.0	295.0
390	439.0	123.0
391	615.0	138.0
392	883.0	565.0
393	444.0	408.0
394	370.0	183.0
395	363.0	529.0
396	187.0	749.0
397	712.0	409.0
398	622.0	172.0
399	905.0	536.0
400	442.0	45.0
401	535.0	204.0
402	714.0	397.0
403	548.0	273.0
404	512.0	59.0
405	360.0	656.0
406	399.0	239.0
407	736.0	349.0
408	602.0	178.0
409	710.0	296.0
410	404.0	41.0
411	384.0	136.0
412	627.0	220.0
413	477.0	337.0
414	607.0	91.0
415	620.0	263.0
416	458.0	43.0
417	583.0	111.0
418	742.0	489.0
419	371.0	595.0
420	562.0	268.0
421	327.0	551.0
422	286.0	33.0
423	710.0	304.0
424	684.0	298.0
425	616.0	195.0
426	269.0	727.0
427	495.0	287.0
428	536.0	263.0
429	703.0	299.0
430	504.0	288.0
431	625.0	154.0
432	616.0	146.0
433	370.0	157.0
434	472.0	414.0
435	625.0	560.0
436	373.0	165.0
437	261.0	13.0
438	416.0	360.0
439	695.0	305.0
440	531.0	360.0
441	626.0	225.0
442	627.0	278.0
443	492.0	336.0
444	683.0	358.0
445	730.0	351.0
446	729.0	355.0
447	611.0	147.0
448	351.0	135.0
449	623.0	148.0
450	50.0	348.0
451	541.0	945.0
452	558.0	1000.0
453	506.0	329.0
454	719.0	349.0
455	608.0	525.0
456	449.0	353.0
457	293.0	9.0
458	397.0	36.0
459	448.0	40.0
460	312.0	351.0
461	425.0	46.0
462	261.0	12.0
463	531.0	315.0
464	458.0	463.0
465	438.0	207.0
466	488.0	574.0
467	458.0	557.0
468	535.0	363.0
469	407.0	381.0
470	571.0	132.0
471	556.0	149.0
472	343.0	333.0
473	125.0	248.0
474	612.0	138.0
475	825.0	560.0
476	534.0	96.0
477	575.0	112.0
478	616.0	187.0
479	414.0	352.0
480	393.0	604.0
481	518.0	287.0
482	558.0	983.0
483	445.0	53.0
484	877.0	281.0
485	405.0	571.0
486	521.0	444.0
487	482.0	32.0
488	897.0	458.0
489	713.0	363.0
490	617.0	184.0
491	589.0	160.0
492	575.0	106.0
493	131.0	337.0
494	608.0	127.0
495	481.0	638.0
496	338.0	549.0
497	193.0	354.0
498	795.0	498.0
499	594.0	164.0
500	703.0	306.0
501	373.0	590.0
502	431.0	53.0
503	564.0	105.0
504	792.0	410.0
505	618.0	210.0
506	585.0	105.0
507	521.0	247.0
508	366.0	339.0
509	438.0	47.0
510	774.0	218.0
511	608.0	96.0
512	330.0	365.0
513	570.0	252.0
514	480.0	441.0
515	589.0	95.0
516	452.0	637.0
517	698.0	307.0
518	747.0	497.0
519	223.0	639.0
520	444.0	743.0
521	479.0	682.0
522	395.0	640.0
523	482.0	362.0
524	504.0	278.0
525	628.0	593.0
526	455.0	605.0
527	705.0	289.0
528	375.0	601.0
529	702.0	293.0
530	294.0	2.0
531	282.0	453.0
532	376.0	482.0
533	723.0	359.0
534	608.0	101.0
535	409.0	358.0
536	502.0	307.0
537	467.0	34.0
538	564.0	248.0
539	624.0	224.0
540	608.0	122.0
541	274.0	4.0
542	162.0	304.0
543	551.0	240.0
544	441.0	210.0
545	721.0	293.0
546	738.0	453.0
547	597.0	562.0
548	731.0	316.0
549	627.0	212.0
550	457.0	346.0
551	623.0	240.0
552	832.0	449.0
553	351.0	505.0
554	1000.0	675.0
555	759.0	496.0
556	320.0	528.0
557	38.0	332.0
558	463.0	463.0
559	609.0	136.0
560	172.0	735.0
561	464.0	361.0
562	587.0	232.0
563	105.0	294.0
564	357.0	230.0
565	380.0	190.0
566	627.0	241.0
567	424.0	452.0
568	721.0	305.0
569	571.0	936.0
570	620.0	237.0
571	624.0	150.0
572	132.0	281.0
573	565.0	531.0
574	605.0	131.0
575	430.0	307.0
576	602.0	176.0
577	398.0	383.0
578	708.0	306.0
579	749.0	458.0
580	543.0	278.0
581	546.0	438.0
582	554.0	277.0
583	293.0	32.0
584	840.0	508.0
585	528.0	304.0
586	356.0	686.0
587	418.0	421.0
588	584.0	277.0
589	516.0	74.0
590	606.0	152.0
591	284.0	431.0
592	340.0	535.0
593	610.0	149.0
594	440.0	199.0
595	720.0	361.0
596	499.0	287.0
597	626.0	243.0
598	320.0	42.0
599	822.0	514.0
600	625.0	220.0
601	448.0	455.0
DEMAND_SECTION
1	0
2	3
3	3
4	3
5	8
6	7
7	3
8	6
9	4
10	6
11	5
12	9
13	7
14	2
15	10
16	6
17	9
18	8
19	4
20	3
21	1
22	4
23	8
24	2
25	10
26	4
27	7
28	9
29	2
30	6
31	8
32	2
33	5
34	2
35	4
36	7
37	1
38	8
39	5
40	6
41	5
42	7
43	6
44	1
45	10
46	3
47	8
48	10
49	6
50	6
51	1
52	6
53	6
54	5
55	2
56	9
57	2
58	8
59	7
60	9
61	5
62	9
63	4
64	2
65	8
66	6
67	6
68	9
69	2
70	2
71	2
72	4
73	4
74	7
75	10
76	10
77	8
78	2
79	1
80	1
81	4
82	5
83	6
84	6
85	6
86	1
87	1
88	5
89	10
90	9
91	10
92	10
93	7
94	1
95	5
96	5
97	7
98	3
99	4
100	4
101	2
102	8
103	4
104	9
105	4
106	4
107	1
108	5
109	5
110	7
111	7
112	3
113	1
114	7
115	5
116	4
117	5
118	8
119	6
120	2
121	8
122	1
123	2
124	8
125	6
126	4
127	7
128	2
129	3
130	4
131	3
132	10
133	10
134	9
135	3
136	6
137	6
138	8
139	9
140	1
141	10
142	4
143	9
144	8
145	6
146	2
147	7
148	4
149	9
150	10
151	4
152	5
153	3
154	3
155	5
156	5
157	7
158	2
159	2
160	7
161	3
162	8
163	2
164	7
165	2
166	2
167	6
168	10
169	7
170	10
171	3
172	5
173	3
174	1
175	3
176	10
177	7
178	5
179	7
180	1
181	8
182	3
183	9
184	6
185	3
186	4
187	9
188	9
189	5
190	5
191	1
192	1
193	4
194	7
195	9
196	5
197	7
198	9
199	4
200	6
201	1
202	2
203	6
204	10
205	8
206	10
207	8
208	1
209	10
210	1
211	3
212	5
213	7
214	5
215	10
216	9
217	6
218	7
219	6
220	6
221	4
222	2
223	3
224	6
225	3
226	2
227	2
228	3
229	7
230	5
231	7
232	10
233	8
234	6
235	3
236	4
237	5
238	7
239	5
240	2
241	10
242	9
243	10
244	2
245	8
246	1
247	10
248	8
249	8
250	10
251	5
252	6
253	8
254	6
255	10
256	4
257	3
258	9
259	6
260	5
261	2
262	6
263	9
264	7
265	3
266	10
267	9
268	4
269	2
270	4
271	4
272	10
273	1
274	3
275	2
276	6
277	4
278	5
279	5
280	6
281	9
282	10
283	6
284	5
285	1
286	5
287	4
288	2
289	2
290	4
291	3
292	10
293	1
294	7
295	2
296	1
297	3
298	5
299	3
300	5
301	6
302	4
303	7
304	6
305	7
306	10
307	3
308	10
309	4
310	4
311	4
312	2
313	9
314	5
315	5
316	5
317	10
318	4
319	9
320	9
321	8
322	4
323	9
324	10
325	8
326	7
327	9
328	1
329	6
330	6
331	3
332	7
333	3
334	5
335	2
336	6
337	2
338	4
339	10
340	7
341	10
342	2
343	8
344	5
345	2
346	6
347	9
348	6
349	1
350	2
351	5
352	3
353	1
354	3
355	7
356	10
357	9
358	9
359	6
360	5
361	10
362	10
363	8
364	10
365	10
366	2
367	4
368	1
369	6
370	5
371	1
372	5
373	5
374	8
375	6
376	10
377	1
378	1
379	8
380	2
381	3
382	4
383	1
384	8
385	10
386	10
387	9
388	7
389	10
390	10
391	3
392	10
393	1
394	4
395	1
396	4
397	9
398	7
399	6
400	8
401	6
402	5
403	8
404	4
405	9
406	4
407	1
408	3
409	4
410	10
411	3
412	2
413	4
414	10
415	4
416	1
417	4
418	3
419	2
420	2
421	3
422	6
423	4
424	7
425	10
426	8
427	3
428	3
429	10
430	10
431	6
432	9
433	10
434	3
435	2
436	6
437	7
438	4
439	3
440	5
441	2
442	4
443	8
444	2
445	2
446	8
447	4
448	5
449	2
450	1
451	3
452	1
453	1
454	6
455	8
456	6
457	6
458	8
459	1
460	6
461	1
462	4
463	6
464	5
465	7
466	4
467	8
468	4
469	2
470	8
471	7
472	9
473	3
474	5
475	10
476	3
477	10
478	6
479	3
480	6
481	5
482	4
483	5
484	7
485	3
486	6
487	3
488	1
489	5
490	4
491	10
492	4
493	2
494	2
495	8
496	4
497	8
498	9
499	9
500	8
501	7
502	7
503	6
504	8
505	6
506	4
507	2
508	6
509	9
510	10
511	10
512	2
513	3
514	7
515	10
516	3
517	3
518	9
519	2
520	8
521	5
522	4
523	2
524	7
525	3
526	2
527	5
528	3
529	7
530	4
531	3
532	10
533	7
534	4
535	9
536	3
537	10
538	7
539	7
540	3
541	10
542	8
543	8
544	10
545	2
546	3
547	9
548	1
549	4
550	4
551	1
552	2
553	6
554	2
555	8
556	2
557	3
558	4
559	9
560	7
561	10
562	7
563	5
564	8
565	1
566	10
567	2
568	6
569	9
570	2
571	8
572	10
573	4
574	7
575	7
576	1
577	4
578	8
579	1
580	9
581	8
582	10
583	3
584	6
585	7
586	9
587	6
588	9
589	1
590	7
591	1
592	7
593	10
594	9
595	10
596	5
597	1
598	5
599	4
600	3
601	9
DEPOT_SECTION
1
-1
EOF
